3 194
10 181
87 9
17 144
67 26
61 16
54 72
28 33
54 76
41 50
21 51
12 24
21 130
85 27
2 78
22 140
36 125
61 50
55 58
2 50
79 35
25 173
49 96
21 94
14 142
71 13
44 36
22 46
16 196
22 17
62 21
66 50
2 26
37 134
6 83
28 9
19 89
11 196
20 34
43 75
4 136
39 66
79 14
4 76
55 22
37 56
20 84
22 39
29 60
55 32
